ssat_solver_solve2
#level: 2
Abc_NtkNodeNum(s->pNtk): 1384  , BDD limit: 10240
level 1: 15 element
Exist
existence_eliminate_scope
Abc_NtkIsBddLogic(pNtk): 0
Abc_NtkIsStrash(pNtk): 1
existence_eliminate_scope_aig
exist by BDD failed
Abc_NtkNodeNum(s->pNtk): 565265  , BDD limit: 678318
Build BDD success
level 0: 15 element
Random
c ssat solving in ABC
#var: 30
s SATISFIABLE
  > Upper bound = 1.000000e+00
  > Lower bound = 1.000000e+00
FINISHED CPU 17.94 MEM 180600 MAXMEM 180600 STALE 0 MAXMEM_RSS 136376
<time name="ALL">17990</time>
real 18.08
user 21.08
sys 8.14
